10	5
0	7	8	5	2	7	3	4	1
1	3	10	9	6
2	1	9
3	1	11
4	0
5	2	9	7
6	1	11
7	1	11
8	1	11
9	1	11
10	1	11
11	0
0	0	0	0	0	0	0
1	2	5	4	1	3	1
2	7	1	5	5	4	5
3	10	3	5	5	2	3
4	5	1	4	1	1	4
5	3	1	1	3	3	2
6	5	1	3	1	4	1
7	3	2	1	4	3	1
8	9	4	2	4	4	4
9	10	1	3	3	4	4
10	7	4	4	5	5	5
11	0	0	0	0	0	0
10	13	16	14	14
